**Version: Gurobi Optimizer version 9.1.2 build v9.1.2rc0 (mac64)**
#Group: https://groups.google.com/g/gurobi
#Setup: https://support.gurobi.com/hc/en-us/articles/360013417211-Where-do-I-place-the-Gurobi-license-file-gurobi-lic-
#Documentation: https://www.gurobi.com/documentation/9.1/quickstart_mac/cs_python.html#section:Python

**Callback Codes
#Function:
#Documentation: https://www.gurobi.com/documentation/9.5/refman/cb_codes.html#sec:CallbackCodes

#Function: Adding A Cutting Plane
#Documentation: https://www.gurobi.com/documentation/9.5/refman/java_cb_addcut.html

#Function: Global Cut Control
#Documentation: https://www.gurobi.com/documentation/9.1/refman/cuts.html

**11 Approach 2 Cutting Planes Methods For Solving MIP Problems 1**
#Instruction: https://youtu.be/_iBzN83trqA

**Examples in Python**
#Path: /Library/gurobi951/macos_universal2/examples/python

